\ LP format - for model browsing. Use MPS format to capture full model detail.
Minimize
  0 B39(0) + 0 B41(0) + 0 B44(0) + 0 B47(0) + 0 B50(0) + 0 B53(0) + 0 B55(0)
   + 0 B57(0) + 0 B64(0) + 0 B66(0) + 0 B69(0) + 0 B71(0) + 0 B72(0)
   + 0 B75(0) + 0 B78(0) + 0 B81(0) + 0 B84(0) + 0 B85(0) + 0 B86(0)
   + 0 B87(0) + 0 B88(0) + 0 B89(0) + 0 B92(0) + 0 B95(0) + 0 B98(0)
   + 0 B99(0) + 0 B100(0) + 0 B101(0) + 0 B102(0) + 0 B103(0) + 0 B111(0)
   + 0 B114(0) + 0 B115(0) + 0 B116(0) + 0 B117(0) + 0 B119(0) + 0 B120(0)
   + 0 B123(0) + 0 B126(0) + 0 B129(0) + 0 B130(0) + 0 B131(0) + 0 B132(0)
   + 0 B133(0) + 0 B134(0) + 0 B135(0) + 0 B137(0) + 0 B140(0) + 0 B143(0)
   + 0 B144(0) + 0 B145(0) + 0 B146(0) + 0 B147(0) + 0 B148(0) + 0 B149(0)
   + 0 B151(0) + 0 B152(0) + 0 B155(0) + 0 B156(0) + 0 B159(0) + 0 B160(0)
   + 0 B161(0) + 0 B162(0) + 0 B163(0) + 0 B164(0) + 0 B165(0) + 0 B166(0)
   + 0 B167(0) + 0 B168(0) + 0 B169(0) + 0 B171(0) + 0 B172(0) + 0 B174(0)
   + 0 B175(0) + 0 B176(0) + 0 B177(0) + 0 B178(0) + 0 B179(0) + 0 B180(0)
   + 0 B181(0) + 0 B182(0) + 0 B183(0) + 0 B184(0) + 0 B185(0) + 0 B188(0)
   + 0 B189(0) + 0 B190(0) + 0 B191(0) + 0 B192(0) + 0 B193(0) + 0 B194(0)
   + 0 B195(0) + 0 B196(0) + 0 B197(0) + 0 B198(0) + 0 B199(0) + 0 B200(0)
   + 0 B204(0) + 0 B205(0) + 0 B206(0) + 0 B207(0) + 0 B208(0) + 0 B209(0)
   + 0 B210(0) + 0 B211(0) + 0 B212(0) + 0 B213(0) + 0 B214(0) + 0 B215(0)
   + 0 B216(0) + 0 B217(0) + 0 B219(0) + 0 B220(0) + 0 B221(0) + 0 B222(0)
   + 0 B223(0) + 0 B224(0) + 0 B225(0) + 0 B226(0) + 0 B227(0) + 0 B228(0)
   + 0 B229(0) + 0 B230(0) + 0 B231(0) + 0 B233(0) + 0 B234(0) + 0 B235(0)
   + 0 B236(0) + 0 B237(0) + 0 B238(0) + 0 B239(0) + 0 B240(0) + 0 B241(0)
   + 0 B242(0) + 0 B243(0) + 0 B244(0) + 0 B245(0) + 0 B247(0) + 0 B249(0)
   + 0 B250(0) + 0 B251(0) + 0 B252(0) + 0 B253(0) + 0 B254(0) + 0 B255(0)
   + 0 B256(0) + 0 B257(0) + 0 B258(0) + 0 B259(0) + 0 B260(0) + 0 B261(0)
   + 0 B263(0) + I303(1)
Subject To
 c0: - 150 B0(17) - 160 B1(13) - 200 B2(7) - 178 B9(13) - 95 B10(9)
   - 150 B11(7) - 190 B17(17) - 100 B18(13) - 153 B19(9) - 145 B25(15)
   - 136 B26(9) - 110 B31(15) - 85 B32(9) - I264(18) - I265(14) - I266(8)
   - I273(14) - I274(10) - I275(8) - I281(18) - I282(14) - I283(10)
   - I289(16) - I290(10) - I295(16) - I296(10) + I303(1) >= 0
 c1: B0(17) + B1(13) + B2(7) = 1
 c2: B3(15) + B4(15) + B5(17) = 1
 c3: B6(16) + B7(16) + B8(16) = 1
 c4: B9(13) + B10(9) + B11(7) = 1
 c5: B12(13) + B13(17) + B14(15) = 1
 c6: B15(14) + B16(18) = 1
 c7: B17(17) + B18(13) + B19(9) = 1
 c8: B20(15) + B21(17) + B22(7) = 1
 c9: B23(14) + B24(14) = 1
 c10: B25(15) + B26(9) = 1
 c11: B27(15) + B28(13) = 1
 c12: B29(14) + B30(14) = 1
 c13: B31(15) + B32(9) = 1
 c14: B33(17) + B34(15) + B35(15) = 1
 c15: B36(14) + B37(14) + B38(18) = 1
 c16: - 1e+07 B0(17) + I264(18) <= 0
 c17: - 1e+07 B1(13) + I265(14) <= 0
 c18: - 1e+07 B2(7) + I266(8) <= 0
 c19: - 1e+07 B3(15) + I267(16) <= 0
 c20: - 1e+07 B4(15) + I268(16) <= 0
 c21: - 1e+07 B5(17) + I269(18) <= 0
 c22: - 1e+07 B6(16) + I270(16) <= 0
 c23: - 1e+07 B7(16) + I271(16) <= 0
 c24: - 1e+07 B8(16) + I272(16) <= 0
 c25: - 1e+07 B9(13) + I273(14) <= 0
 c26: - 1e+07 B10(9) + I274(10) <= 0
 c27: - 1e+07 B11(7) + I275(8) <= 0
 c28: - 1e+07 B12(13) + I276(14) <= 0
 c29: - 1e+07 B13(17) + I277(18) <= 0
 c30: - 1e+07 B14(15) + I278(16) <= 0
 c31: - 1e+07 B15(14) + I279(14) <= 0
 c32: - 1e+07 B16(18) + I280(18) <= 0
 c33: - 1e+07 B17(17) + I281(18) <= 0
 c34: - 1e+07 B18(13) + I282(14) <= 0
 c35: - 1e+07 B19(9) + I283(10) <= 0
 c36: - 1e+07 B20(15) + I284(16) <= 0
 c37: - 1e+07 B21(17) + I285(18) <= 0
 c38: - 1e+07 B22(7) + I286(8) <= 0
 c39: - 1e+07 B23(14) + I287(14) <= 0
 c40: - 1e+07 B24(14) + I288(14) <= 0
 c41: - 1e+07 B25(15) + I289(16) <= 0
 c42: - 1e+07 B26(9) + I290(10) <= 0
 c43: - 1e+07 B27(15) + I291(16) <= 0
 c44: - 1e+07 B28(13) + I292(14) <= 0
 c45: - 1e+07 B29(14) + I293(14) <= 0
 c46: - 1e+07 B30(14) + I294(14) <= 0
 c47: - 1e+07 B31(15) + I295(16) <= 0
 c48: - 1e+07 B32(9) + I296(10) <= 0
 c49: - 1e+07 B33(17) + I297(18) <= 0
 c50: - 1e+07 B34(15) + I298(16) <= 0
 c51: - 1e+07 B35(15) + I299(16) <= 0
 c52: - 1e+07 B36(14) + I300(14) <= 0
 c53: - 1e+07 B37(14) + I301(14) <= 0
 c54: - 1e+07 B38(18) + I302(18) <= 0
 c55: - 122 B3(15) - 130 B4(15) - 140 B5(17) + I264(18) + I265(14)
   + I266(8) - I267(16) - I268(16) - I269(18) >= 0
 c56: - 147 B6(16) - 122 B7(16) - 145 B8(16) + I267(16) + I268(16)
   + I269(18) - I270(16) - I271(16) - I272(16) >= 0
 c57: - 66 B12(13) - 87 B13(17) - 99 B14(15) + I273(14) + I274(10)
   + I275(8) - I276(14) - I277(18) - I278(16) >= 0
 c58: - 214 B15(14) - 150 B16(18) + I276(14) + I277(18) + I278(16)
   - I279(14) - I280(18) >= 0
 c59: - 180 B20(15) - 105 B21(17) - 145 B22(7) + I281(18) + I282(14)
   + I283(10) - I284(16) - I285(18) - I286(8) >= 0
 c60: - 87 B23(14) - 62 B24(14) + I284(16) + I285(18) + I286(8) - I287(14)
   - I288(14) >= 0
 c61: - 250 B27(15) - 173 B28(13) + I289(16) + I290(10) - I291(16)
   - I292(14) >= 0
 c62: - 87 B29(14) - 65 B30(14) + I291(16) + I292(14) - I293(14) - I294(14)
   >= 0
 c63: - 86 B33(17) - 65 B34(15) - 47 B35(15) + I295(16) + I296(10)
   - I297(18) - I298(16) - I299(16) >= 0
 c64: - 128 B36(14) - 122 B37(14) - 145 B38(18) + I297(18) + I298(16)
   + I299(16) - I300(14) - I301(14) - I302(18) >= 0
 c65: - 1e+07 B0(17) - 1e+07 B5(17) + 1e+07 B40(2) - I264(18) + I269(18)
   >= -1.9999301e+07
 c66: - 1e+07 B0(17) - 1e+07 B5(17) - 1e+07 B40(2) + I264(18) - I269(18)
   >= -2.9998976e+07
 c67: - 1e+07 B1(13) - 1e+07 B9(13) + 1e+07 B42(4) - I265(14) + I273(14)
   >= -1.9999312e+07
 c68: - 1e+07 B1(13) - 1e+07 B9(13) - 1e+07 B42(4) + I265(14) - I273(14)
   >= -2.9999612e+07
 c69: - 1e+07 B2(7) - 1e+07 B11(7) + 1e+07 B42(4) - I266(8) + I275(8)
   >= -1.9999119e+07
 c70: - 1e+07 B2(7) - 1e+07 B11(7) - 1e+07 B42(4) + I266(8) - I275(8)
   >= -2.9998725e+07
 c71: - 1e+07 B0(17) - 1e+07 B14(15) + 1e+07 B43(2) - I264(18) + I278(16)
   >= -1.9999045e+07
 c72: - 1e+07 B0(17) - 1e+07 B14(15) - 1e+07 B43(2) + I264(18) - I278(16)
   >= -2.9999652e+07
 c73: - 1e+07 B0(17) - 1e+07 B17(17) + 1e+07 B45(4) - I264(18) + I281(18)
   >= -1.9999568e+07
 c74: - 1e+07 B0(17) - 1e+07 B17(17) - 1e+07 B45(4) + I264(18) - I281(18)
   >= -2.9998846e+07
 c75: - 1e+07 B1(13) - 1e+07 B18(13) + 1e+07 B45(4) - I265(14) + I282(14)
   >= -1.9999652e+07
 c76: - 1e+07 B1(13) - 1e+07 B18(13) - 1e+07 B45(4) + I265(14) - I282(14)
   >= -2.9999709e+07
 c77: - 1e+07 B0(17) - 1e+07 B21(17) + 1e+07 B46(4) - I264(18) + I285(18)
   >= -1.9998745e+07
 c78: - 1e+07 B0(17) - 1e+07 B21(17) - 1e+07 B46(4) + I264(18) - I285(18)
   >= -2.99998e+07
 c79: - 1e+07 B2(7) - 1e+07 B22(7) + 1e+07 B46(4) - I266(8) + I286(8)
   >= -1.9999265e+07
 c80: - 1e+07 B2(7) - 1e+07 B22(7) - 1e+07 B46(4) + I266(8) - I286(8)
   >= -2.9999391e+07
 c81: - 1e+07 B0(17) - 1e+07 B25(15) + 1e+07 B48(2) - I264(18) + I289(16)
   >= -1.9999622e+07
 c82: - 1e+07 B0(17) - 1e+07 B25(15) - 1e+07 B48(2) + I264(18) - I289(16)
   >= -2.9999594e+07
 c83: - 1e+07 B1(13) - 1e+07 B28(13) + 1e+07 B49(2) - I265(14) + I292(14)
   >= -1.9998835e+07
 c84: - 1e+07 B1(13) - 1e+07 B28(13) - 1e+07 B49(2) + I265(14) - I292(14)
   >= -2.9999063e+07
 c85: - 1e+07 B1(13) - 1e+07 B31(15) + 1e+07 B51(2) - I265(14) + I295(16)
   >= -1.999902e+07
 c86: - 1e+07 B1(13) - 1e+07 B31(15) - 1e+07 B51(2) + I265(14) - I295(16)
   >= -2.9999841e+07
 c87: - 1e+07 B0(17) - 1e+07 B34(15) + 1e+07 B52(4) - I264(18) + I298(16)
   >= -1.9999675e+07
 c88: - 1e+07 B0(17) - 1e+07 B34(15) - 1e+07 B52(4) + I264(18) - I298(16)
   >= -2.9999537e+07
 c89: - 1e+07 B1(13) - 1e+07 B35(15) + 1e+07 B52(4) - I265(14) + I299(16)
   >= -1.9999612e+07
 c90: - 1e+07 B1(13) - 1e+07 B35(15) - 1e+07 B52(4) + I265(14) - I299(16)
   >= -2.9999841e+07
 c91: - 1e+07 B0(17) - 1e+07 B5(17) + 1e+07 B54(2) + I264(18) - I269(18)
   >= -1.9998976e+07
 c92: - 1e+07 B0(17) - 1e+07 B5(17) - 1e+07 B54(2) - I264(18) + I269(18)
   >= -2.9999301e+07
 c93: - 1e+07 B3(15) - 1e+07 B6(16) + 1e+07 B56(4) - I267(16) + I270(16)
   >= -1.999933e+07
 c94: - 1e+07 B3(15) - 1e+07 B6(16) - 1e+07 B56(4) + I267(16) - I270(16)
   >= -2.9999627e+07
 c95: - 1e+07 B4(15) - 1e+07 B7(16) + 1e+07 B56(4) - I268(16) + I271(16)
   >= -1.999927e+07
 c96: - 1e+07 B4(15) - 1e+07 B7(16) - 1e+07 B56(4) + I268(16) - I271(16)
   >= -2.9998653e+07
 c97: - 1e+07 B4(15) - 1e+07 B12(13) + 1e+07 B58(4) - I268(16) + I276(14)
   >= -1.9999618e+07
 c98: - 1e+07 B4(15) - 1e+07 B12(13) - 1e+07 B58(4) + I268(16) - I276(14)
   >= -2.9999806e+07
 c99: - 1e+07 B5(17) - 1e+07 B14(15) + 1e+07 B58(4) - I269(18) + I278(16)
   >= -1.9999538e+07
 c100: - 1e+07 B5(17) - 1e+07 B14(15) - 1e+07 B58(4) + I269(18) - I278(16)
   >= -2.9999361e+07
 c101: - 1e+07 B3(15) - 1e+07 B15(14) + 1e+07 B59(2) - I267(16) + I279(14)
   >= -1.9999358e+07
 c102: - 1e+07 B3(15) - 1e+07 B15(14) - 1e+07 B59(2) + I267(16) - I279(14)
   >= -2.9999094e+07
 c103: - 1e+07 B5(17) - 1e+07 B17(17) + 1e+07 B60(2) - I269(18) + I281(18)
   >= -1.9999641e+07
 c104: - 1e+07 B5(17) - 1e+07 B17(17) - 1e+07 B60(2) + I269(18) - I281(18)
   >= -2.9999676e+07
 c105: - 1e+07 B5(17) - 1e+07 B21(17) + 1e+07 B61(2) - I269(18) + I285(18)
   >= -1.9999268e+07
 c106: - 1e+07 B5(17) - 1e+07 B21(17) - 1e+07 B61(2) + I269(18) - I285(18)
   >= -2.9999733e+07
 c107: - 1e+07 B3(15) - 1e+07 B23(14) + 1e+07 B62(4) - I267(16) + I287(14)
   >= -1.999945e+07
 c108: - 1e+07 B3(15) - 1e+07 B23(14) - 1e+07 B62(4) + I267(16) - I287(14)
   >= -2.9999745e+07
 c109: - 1e+07 B4(15) - 1e+07 B24(14) + 1e+07 B62(4) - I268(16) + I288(14)
   >= -1.9998805e+07
 c110: - 1e+07 B4(15) - 1e+07 B24(14) - 1e+07 B62(4) + I268(16) - I288(14)
   >= -2.9999795e+07
 c111: - 1e+07 B5(17) - 1e+07 B25(15) + 1e+07 B63(2) - I269(18) + I289(16)
   >= -1.9998944e+07
 c112: - 1e+07 B5(17) - 1e+07 B25(15) - 1e+07 B63(2) + I269(18) - I289(16)
   >= -2.9999417e+07
 c113: - 1e+07 B3(15) - 1e+07 B29(14) + 1e+07 B65(4) - I267(16) + I293(14)
   >= -1.9999598e+07
 c114: - 1e+07 B3(15) - 1e+07 B29(14) - 1e+07 B65(4) + I267(16) - I293(14)
   >= -2.9999049e+07
 c115: - 1e+07 B4(15) - 1e+07 B30(14) + 1e+07 B65(4) - I268(16) + I294(14)
   >= -1.9999754e+07
 c116: - 1e+07 B4(15) - 1e+07 B30(14) - 1e+07 B65(4) + I268(16) - I294(14)
   >= -2.9999437e+07
 c117: - 1e+07 B5(17) - 1e+07 B34(15) + 1e+07 B67(2) - I269(18) + I298(16)
   >= -1.9999626e+07
 c118: - 1e+07 B5(17) - 1e+07 B34(15) - 1e+07 B67(2) + I269(18) - I298(16)
   >= -2.9999883e+07
 c119: - 1e+07 B3(15) - 1e+07 B36(14) + 1e+07 B68(4) - I267(16) + I300(14)
   >= -1.9999173e+07
 c120: - 1e+07 B3(15) - 1e+07 B36(14) - 1e+07 B68(4) + I267(16) - I300(14)
   >= -2.9999789e+07
 c121: - 1e+07 B4(15) - 1e+07 B37(14) + 1e+07 B68(4) - I268(16) + I301(14)
   >= -1.9999692e+07
 c122: - 1e+07 B4(15) - 1e+07 B37(14) - 1e+07 B68(4) + I268(16) - I301(14)
   >= -2.9999768e+07
 c123: - 1e+07 B3(15) - 1e+07 B6(16) + 1e+07 B70(4) + I267(16) - I270(16)
   >= -1.9999627e+07
 c124: - 1e+07 B3(15) - 1e+07 B6(16) - 1e+07 B70(4) - I267(16) + I270(16)
   >= -2.999933e+07
 c125: - 1e+07 B4(15) - 1e+07 B7(16) + 1e+07 B70(4) + I268(16) - I271(16)
   >= -1.9998653e+07
 c126: - 1e+07 B4(15) - 1e+07 B7(16) - 1e+07 B70(4) - I268(16) + I271(16)
   >= -2.999927e+07
 c127: - 1e+07 B7(16) - 1e+07 B12(13) + 1e+07 B73(4) - I271(16) + I276(14)
   >= -1.9999042e+07
 c128: - 1e+07 B7(16) - 1e+07 B12(13) - 1e+07 B73(4) + I271(16) - I276(14)
   >= -2.9999184e+07
 c129: - 1e+07 B8(16) - 1e+07 B13(17) + 1e+07 B73(4) - I272(16) + I277(18)
   >= -1.9999485e+07
 c130: - 1e+07 B8(16) - 1e+07 B13(17) - 1e+07 B73(4) + I272(16) - I277(18)
   >= -2.999955e+07
 c131: - 1e+07 B6(16) - 1e+07 B15(14) + 1e+07 B74(4) - I270(16) + I279(14)
   >= -1.9999629e+07
 c132: - 1e+07 B6(16) - 1e+07 B15(14) - 1e+07 B74(4) + I270(16) - I279(14)
   >= -2.9999456e+07
 c133: - 1e+07 B8(16) - 1e+07 B16(18) + 1e+07 B74(4) - I272(16) + I280(18)
   >= -1.9999567e+07
 c134: - 1e+07 B8(16) - 1e+07 B16(18) - 1e+07 B74(4) + I272(16) - I280(18)
   >= -2.9999622e+07
 c135: - 1e+07 B8(16) - 1e+07 B20(15) + 1e+07 B76(2) - I272(16) + I284(16)
   >= -1.9999635e+07
 c136: - 1e+07 B8(16) - 1e+07 B20(15) - 1e+07 B76(2) + I272(16) - I284(16)
   >= -2.9999624e+07
 c137: - 1e+07 B6(16) - 1e+07 B23(14) + 1e+07 B77(4) - I270(16) + I287(14)
   >= -1.9998853e+07
 c138: - 1e+07 B6(16) - 1e+07 B23(14) - 1e+07 B77(4) + I270(16) - I287(14)
   >= -2.9999501e+07
 c139: - 1e+07 B7(16) - 1e+07 B24(14) + 1e+07 B77(4) - I271(16) + I288(14)
   >= -1.9999198e+07
 c140: - 1e+07 B7(16) - 1e+07 B24(14) - 1e+07 B77(4) + I271(16) - I288(14)
   >= -2.9999779e+07
 c141: - 1e+07 B8(16) - 1e+07 B27(15) + 1e+07 B79(2) - I272(16) + I291(16)
   >= -1.9999672e+07
 c142: - 1e+07 B8(16) - 1e+07 B27(15) - 1e+07 B79(2) + I272(16) - I291(16)
   >= -2.9999636e+07
 c143: - 1e+07 B6(16) - 1e+07 B29(14) + 1e+07 B80(4) - I270(16) + I293(14)
   >= -1.9999579e+07
 c144: - 1e+07 B6(16) - 1e+07 B29(14) - 1e+07 B80(4) + I270(16) - I293(14)
   >= -2.9999413e+07
 c145: - 1e+07 B7(16) - 1e+07 B30(14) + 1e+07 B80(4) - I271(16) + I294(14)
   >= -1.9999654e+07
 c146: - 1e+07 B7(16) - 1e+07 B30(14) - 1e+07 B80(4) + I271(16) - I294(14)
   >= -2.9999254e+07
 c147: - 1e+07 B8(16) - 1e+07 B33(17) + 1e+07 B82(2) - I272(16) + I297(18)
   >= -1.9999216e+07
 c148: - 1e+07 B8(16) - 1e+07 B33(17) - 1e+07 B82(2) + I272(16) - I297(18)
   >= -2.9998926e+07
 c149: - 1e+07 B6(16) - 1e+07 B36(14) + 1e+07 B83(6) - I270(16) + I300(14)
   >= -1.9999674e+07
 c150: - 1e+07 B6(16) - 1e+07 B36(14) - 1e+07 B83(6) + I270(16) - I300(14)
   >= -2.9999276e+07
 c151: - 1e+07 B7(16) - 1e+07 B37(14) + 1e+07 B83(6) - I271(16) + I301(14)
   >= -1.9999766e+07
 c152: - 1e+07 B7(16) - 1e+07 B37(14) - 1e+07 B83(6) + I271(16) - I301(14)
   >= -2.9999238e+07
 c153: - 1e+07 B8(16) - 1e+07 B38(18) + 1e+07 B83(6) - I272(16) + I302(18)
   >= -1.9999215e+07
 c154: - 1e+07 B8(16) - 1e+07 B38(18) - 1e+07 B83(6) + I272(16) - I302(18)
   >= -2.9999025e+07
 c155: - 1e+07 B9(13) - 1e+07 B18(13) + 1e+07 B90(4) - I273(14) + I282(14)
   >= -1.9999197e+07
 c156: - 1e+07 B9(13) - 1e+07 B18(13) - 1e+07 B90(4) + I273(14) - I282(14)
   >= -2.9999246e+07
 c157: - 1e+07 B10(9) - 1e+07 B19(9) + 1e+07 B90(4) - I274(10) + I283(10)
   >= -1.9999619e+07
 c158: - 1e+07 B10(9) - 1e+07 B19(9) - 1e+07 B90(4) + I274(10) - I283(10)
   >= -2.9999519e+07
 c159: - 1e+07 B11(7) - 1e+07 B22(7) + 1e+07 B91(2) - I275(8) + I286(8)
   >= -1.999959e+07
 c160: - 1e+07 B11(7) - 1e+07 B22(7) - 1e+07 B91(2) + I275(8) - I286(8)
   >= -2.9999395e+07
 c161: - 1e+07 B10(9) - 1e+07 B26(9) + 1e+07 B93(2) - I274(10) + I290(10)
   >= -1.9999428e+07
 c162: - 1e+07 B10(9) - 1e+07 B26(9) - 1e+07 B93(2) + I274(10) - I290(10)
   >= -2.9999644e+07
 c163: - 1e+07 B9(13) - 1e+07 B28(13) + 1e+07 B94(2) - I273(14) + I292(14)
   >= -1.9998707e+07
 c164: - 1e+07 B9(13) - 1e+07 B28(13) - 1e+07 B94(2) + I273(14) - I292(14)
   >= -2.9998817e+07
 c165: - 1e+07 B9(13) - 1e+07 B31(15) + 1e+07 B96(4) - I273(14) + I295(16)
   >= -1.9999576e+07
 c166: - 1e+07 B9(13) - 1e+07 B31(15) - 1e+07 B96(4) + I273(14) - I295(16)
   >= -2.9999797e+07
 c167: - 1e+07 B10(9) - 1e+07 B32(9) + 1e+07 B96(4) - I274(10) + I296(10)
   >= -1.9999662e+07
 c168: - 1e+07 B10(9) - 1e+07 B32(9) - 1e+07 B96(4) + I274(10) - I296(10)
   >= -2.9999597e+07
 c169: - 1e+07 B9(13) - 1e+07 B35(15) + 1e+07 B97(2) - I273(14) + I299(16)
   >= -1.999945e+07
 c170: - 1e+07 B9(13) - 1e+07 B35(15) - 1e+07 B97(2) + I273(14) - I299(16)
   >= -2.9999605e+07
 c171: - 1e+07 B13(17) - 1e+07 B16(18) + 1e+07 B104(2) - I277(18)
   + I280(18) >= -1.9999732e+07
 c172: - 1e+07 B13(17) - 1e+07 B16(18) - 1e+07 B104(2) + I277(18)
   - I280(18) >= -2.9999748e+07
 c173: - 1e+07 B14(15) - 1e+07 B17(17) + 1e+07 B105(2) - I278(16)
   + I281(18) >= -1.9999735e+07
 c174: - 1e+07 B14(15) - 1e+07 B17(17) - 1e+07 B105(2) + I278(16)
   - I281(18) >= -2.999961e+07
 c175: - 1e+07 B13(17) - 1e+07 B20(15) + 1e+07 B106(4) - I277(18)
   + I284(16) >= -1.9999065e+07
 c176: - 1e+07 B13(17) - 1e+07 B20(15) - 1e+07 B106(4) + I277(18)
   - I284(16) >= -2.9999693e+07
 c177: - 1e+07 B14(15) - 1e+07 B21(17) + 1e+07 B106(4) - I278(16)
   + I285(18) >= -1.9999565e+07
 c178: - 1e+07 B14(15) - 1e+07 B21(17) - 1e+07 B106(4) + I278(16)
   - I285(18) >= -2.9999768e+07
 c179: - 1e+07 B12(13) - 1e+07 B24(14) + 1e+07 B107(2) - I276(14)
   + I288(14) >= -1.999939e+07
 c180: - 1e+07 B12(13) - 1e+07 B24(14) - 1e+07 B107(2) + I276(14)
   - I288(14) >= -2.9999768e+07
 c181: - 1e+07 B14(15) - 1e+07 B25(15) + 1e+07 B108(2) - I278(16)
   + I289(16) >= -1.9999718e+07
 c182: - 1e+07 B14(15) - 1e+07 B25(15) - 1e+07 B108(2) + I278(16)
   - I289(16) >= -2.9999681e+07
 c183: - 1e+07 B13(17) - 1e+07 B27(15) + 1e+07 B109(2) - I277(18)
   + I291(16) >= -1.9999457e+07
 c184: - 1e+07 B13(17) - 1e+07 B27(15) - 1e+07 B109(2) + I277(18)
   - I291(16) >= -2.9999566e+07
 c185: - 1e+07 B12(13) - 1e+07 B30(14) + 1e+07 B110(2) - I276(14)
   + I294(14) >= -1.9999253e+07
 c186: - 1e+07 B12(13) - 1e+07 B30(14) - 1e+07 B110(2) + I276(14)
   - I294(14) >= -2.9999836e+07
 c187: - 1e+07 B13(17) - 1e+07 B33(17) + 1e+07 B112(4) - I277(18)
   + I297(18) >= -1.9999573e+07
 c188: - 1e+07 B13(17) - 1e+07 B33(17) - 1e+07 B112(4) + I277(18)
   - I297(18) >= -2.9999756e+07
 c189: - 1e+07 B14(15) - 1e+07 B34(15) + 1e+07 B112(4) - I278(16)
   + I298(16) >= -1.9999514e+07
 c190: - 1e+07 B14(15) - 1e+07 B34(15) - 1e+07 B112(4) + I278(16)
   - I298(16) >= -2.999966e+07
 c191: - 1e+07 B12(13) - 1e+07 B37(14) + 1e+07 B113(4) - I276(14)
   + I301(14) >= -1.9999733e+07
 c192: - 1e+07 B12(13) - 1e+07 B37(14) - 1e+07 B113(4) + I276(14)
   - I301(14) >= -2.9998998e+07
 c193: - 1e+07 B13(17) - 1e+07 B38(18) + 1e+07 B113(4) - I277(18)
   + I302(18) >= -1.9999551e+07
 c194: - 1e+07 B13(17) - 1e+07 B38(18) - 1e+07 B113(4) + I277(18)
   - I302(18) >= -2.9999798e+07
 c195: - 1e+07 B13(17) - 1e+07 B16(18) + 1e+07 B118(2) + I277(18)
   - I280(18) >= -1.9999748e+07
 c196: - 1e+07 B13(17) - 1e+07 B16(18) - 1e+07 B118(2) - I277(18)
   + I280(18) >= -2.9999732e+07
 c197: - 1e+07 B16(18) - 1e+07 B20(15) + 1e+07 B121(2) - I280(18)
   + I284(16) >= -1.999897e+07
 c198: - 1e+07 B16(18) - 1e+07 B20(15) - 1e+07 B121(2) + I280(18)
   - I284(16) >= -2.9999732e+07
 c199: - 1e+07 B15(14) - 1e+07 B23(14) + 1e+07 B122(2) - I279(14)
   + I287(14) >= -1.9999432e+07
 c200: - 1e+07 B15(14) - 1e+07 B23(14) - 1e+07 B122(2) + I279(14)
   - I287(14) >= -2.9999493e+07
 c201: - 1e+07 B16(18) - 1e+07 B27(15) + 1e+07 B124(2) - I280(18)
   + I291(16) >= -1.9999418e+07
 c202: - 1e+07 B16(18) - 1e+07 B27(15) - 1e+07 B124(2) + I280(18)
   - I291(16) >= -2.9999588e+07
 c203: - 1e+07 B15(14) - 1e+07 B29(14) + 1e+07 B125(2) - I279(14)
   + I293(14) >= -1.9999384e+07
 c204: - 1e+07 B15(14) - 1e+07 B29(14) - 1e+07 B125(2) + I279(14)
   - I293(14) >= -2.9999716e+07
 c205: - 1e+07 B16(18) - 1e+07 B33(17) + 1e+07 B127(2) - I280(18)
   + I297(18) >= -1.9999797e+07
 c206: - 1e+07 B16(18) - 1e+07 B33(17) - 1e+07 B127(2) + I280(18)
   - I297(18) >= -2.999966e+07
 c207: - 1e+07 B15(14) - 1e+07 B36(14) + 1e+07 B128(4) - I279(14)
   + I300(14) >= -1.9999462e+07
 c208: - 1e+07 B15(14) - 1e+07 B36(14) - 1e+07 B128(4) + I279(14)
   - I300(14) >= -2.9998912e+07
 c209: - 1e+07 B16(18) - 1e+07 B38(18) + 1e+07 B128(4) - I280(18)
   + I302(18) >= -1.9999518e+07
 c210: - 1e+07 B16(18) - 1e+07 B38(18) - 1e+07 B128(4) + I280(18)
   - I302(18) >= -2.9999427e+07
 c211: - 1e+07 B17(17) - 1e+07 B21(17) + 1e+07 B136(2) - I281(18)
   + I285(18) >= -1.9998715e+07
 c212: - 1e+07 B17(17) - 1e+07 B21(17) - 1e+07 B136(2) + I281(18)
   - I285(18) >= -2.9999828e+07
 c213: - 1e+07 B17(17) - 1e+07 B25(15) + 1e+07 B138(4) - I281(18)
   + I289(16) >= -1.999965e+07
 c214: - 1e+07 B17(17) - 1e+07 B25(15) - 1e+07 B138(4) + I281(18)
   - I289(16) >= -2.9999105e+07
 c215: - 1e+07 B19(9) - 1e+07 B26(9) + 1e+07 B138(4) - I283(10) + I290(10)
   >= -1.9999616e+07
 c216: - 1e+07 B19(9) - 1e+07 B26(9) - 1e+07 B138(4) + I283(10) - I290(10)
   >= -2.9999049e+07
 c217: - 1e+07 B18(13) - 1e+07 B28(13) + 1e+07 B139(2) - I282(14)
   + I292(14) >= -1.9999536e+07
 c218: - 1e+07 B18(13) - 1e+07 B28(13) - 1e+07 B139(2) + I282(14)
   - I292(14) >= -2.9999417e+07
 c219: - 1e+07 B18(13) - 1e+07 B31(15) + 1e+07 B141(4) - I282(14)
   + I295(16) >= -1.9999804e+07
 c220: - 1e+07 B18(13) - 1e+07 B31(15) - 1e+07 B141(4) + I282(14)
   - I295(16) >= -2.9998785e+07
 c221: - 1e+07 B19(9) - 1e+07 B32(9) + 1e+07 B141(4) - I283(10) + I296(10)
   >= -1.9999417e+07
 c222: - 1e+07 B19(9) - 1e+07 B32(9) - 1e+07 B141(4) + I283(10) - I296(10)
   >= -2.9999441e+07
 c223: - 1e+07 B17(17) - 1e+07 B34(15) + 1e+07 B142(4) - I281(18)
   + I298(16) >= -1.9998605e+07
 c224: - 1e+07 B17(17) - 1e+07 B34(15) - 1e+07 B142(4) + I281(18)
   - I298(16) >= -2.9999127e+07
 c225: - 1e+07 B18(13) - 1e+07 B35(15) + 1e+07 B142(4) - I282(14)
   + I299(16) >= -1.9999798e+07
 c226: - 1e+07 B18(13) - 1e+07 B35(15) - 1e+07 B142(4) + I282(14)
   - I299(16) >= -2.9999337e+07
 c227: - 1e+07 B17(17) - 1e+07 B21(17) + 1e+07 B150(2) + I281(18)
   - I285(18) >= -1.9999828e+07
 c228: - 1e+07 B17(17) - 1e+07 B21(17) - 1e+07 B150(2) - I281(18)
   + I285(18) >= -2.9998715e+07
 c229: - 1e+07 B21(17) - 1e+07 B25(15) + 1e+07 B153(2) - I285(18)
   + I289(16) >= -1.999965e+07
 c230: - 1e+07 B21(17) - 1e+07 B25(15) - 1e+07 B153(2) + I285(18)
   - I289(16) >= -2.9999183e+07
 c231: - 1e+07 B20(15) - 1e+07 B27(15) + 1e+07 B154(2) - I284(16)
   + I291(16) >= -1.9999193e+07
 c232: - 1e+07 B20(15) - 1e+07 B27(15) - 1e+07 B154(2) + I284(16)
   - I291(16) >= -2.9999365e+07
 c233: - 1e+07 B20(15) - 1e+07 B33(17) + 1e+07 B157(4) - I284(16)
   + I297(18) >= -1.9999364e+07
 c234: - 1e+07 B20(15) - 1e+07 B33(17) - 1e+07 B157(4) + I284(16)
   - I297(18) >= -2.999982e+07
 c235: - 1e+07 B21(17) - 1e+07 B34(15) + 1e+07 B157(4) - I285(18)
   + I298(16) >= -1.9999603e+07
 c236: - 1e+07 B21(17) - 1e+07 B34(15) - 1e+07 B157(4) + I285(18)
   - I298(16) >= -2.9999447e+07
 c237: - 1e+07 B20(15) - 1e+07 B38(18) + 1e+07 B158(2) - I284(16)
   + I302(18) >= -1.9999691e+07
 c238: - 1e+07 B20(15) - 1e+07 B38(18) - 1e+07 B158(2) + I284(16)
   - I302(18) >= -2.9999087e+07
 c239: - 1e+07 B23(14) - 1e+07 B29(14) + 1e+07 B170(4) - I287(14)
   + I293(14) >= -1.9999184e+07
 c240: - 1e+07 B23(14) - 1e+07 B29(14) - 1e+07 B170(4) + I287(14)
   - I293(14) >= -2.9999686e+07
 c241: - 1e+07 B24(14) - 1e+07 B30(14) + 1e+07 B170(4) - I288(14)
   + I294(14) >= -1.9999106e+07
 c242: - 1e+07 B24(14) - 1e+07 B30(14) - 1e+07 B170(4) + I288(14)
   - I294(14) >= -2.9999495e+07
 c243: - 1e+07 B23(14) - 1e+07 B36(14) + 1e+07 B173(4) - I287(14)
   + I300(14) >= -1.9999503e+07
 c244: - 1e+07 B23(14) - 1e+07 B36(14) - 1e+07 B173(4) + I287(14)
   - I300(14) >= -2.999967e+07
 c245: - 1e+07 B24(14) - 1e+07 B37(14) + 1e+07 B173(4) - I288(14)
   + I301(14) >= -1.9999766e+07
 c246: - 1e+07 B24(14) - 1e+07 B37(14) - 1e+07 B173(4) + I288(14)
   - I301(14) >= -2.9999554e+07
 c247: - 1e+07 B26(9) - 1e+07 B32(9) + 1e+07 B186(2) - I290(10) + I296(10)
   >= -1.9999507e+07
 c248: - 1e+07 B26(9) - 1e+07 B32(9) - 1e+07 B186(2) + I290(10) - I296(10)
   >= -2.9999521e+07
 c249: - 1e+07 B25(15) - 1e+07 B34(15) + 1e+07 B187(2) - I289(16)
   + I298(16) >= -1.9999435e+07
 c250: - 1e+07 B25(15) - 1e+07 B34(15) - 1e+07 B187(2) + I289(16)
   - I298(16) >= -2.9999091e+07
 c251: - 1e+07 B28(13) - 1e+07 B31(15) + 1e+07 B201(2) - I292(14)
   + I295(16) >= -1.9999352e+07
 c252: - 1e+07 B28(13) - 1e+07 B31(15) - 1e+07 B201(2) + I292(14)
   - I295(16) >= -2.9998978e+07
 c253: - 1e+07 B27(15) - 1e+07 B33(17) + 1e+07 B202(4) - I291(16)
   + I297(18) >= -1.9998885e+07
 c254: - 1e+07 B27(15) - 1e+07 B33(17) - 1e+07 B202(4) + I291(16)
   - I297(18) >= -2.9999594e+07
 c255: - 1e+07 B28(13) - 1e+07 B35(15) + 1e+07 B202(4) - I292(14)
   + I299(16) >= -1.9999032e+07
 c256: - 1e+07 B28(13) - 1e+07 B35(15) - 1e+07 B202(4) + I292(14)
   - I299(16) >= -2.99995e+07
 c257: - 1e+07 B27(15) - 1e+07 B38(18) + 1e+07 B203(2) - I291(16)
   + I302(18) >= -1.9999688e+07
 c258: - 1e+07 B27(15) - 1e+07 B38(18) - 1e+07 B203(2) + I291(16)
   - I302(18) >= -2.999967e+07
 c259: - 1e+07 B29(14) - 1e+07 B36(14) + 1e+07 B218(4) - I293(14)
   + I300(14) >= -1.9998973e+07
 c260: - 1e+07 B29(14) - 1e+07 B36(14) - 1e+07 B218(4) + I293(14)
   - I300(14) >= -2.9999364e+07
 c261: - 1e+07 B30(14) - 1e+07 B37(14) + 1e+07 B218(4) - I294(14)
   + I301(14) >= -1.9999452e+07
 c262: - 1e+07 B30(14) - 1e+07 B37(14) - 1e+07 B218(4) + I294(14)
   - I301(14) >= -2.999982e+07
 c263: - 1e+07 B31(15) - 1e+07 B35(15) + 1e+07 B232(2) - I295(16)
   + I299(16) >= -1.9999662e+07
 c264: - 1e+07 B31(15) - 1e+07 B35(15) - 1e+07 B232(2) + I295(16)
   - I299(16) >= -2.9999904e+07
 c265: - 1e+07 B31(15) - 1e+07 B35(15) + 1e+07 B246(2) + I295(16)
   - I299(16) >= -1.9999904e+07
 c266: - 1e+07 B31(15) - 1e+07 B35(15) - 1e+07 B246(2) - I295(16)
   + I299(16) >= -2.9999662e+07
 c267: - 1e+07 B33(17) - 1e+07 B38(18) + 1e+07 B248(2) - I297(18)
   + I302(18) >= -1.9999246e+07
 c268: - 1e+07 B33(17) - 1e+07 B38(18) - 1e+07 B248(2) + I297(18)
   - I302(18) >= -2.9999546e+07
 c269: - 1e+07 B33(17) - 1e+07 B38(18) + 1e+07 B262(2) + I297(18)
   - I302(18) >= -1.9999546e+07
 c270: - 1e+07 B33(17) - 1e+07 B38(18) - 1e+07 B262(2) - I297(18)
   + I302(18) >= -2.9999246e+07
 c271: I264(18) >= 0
 c272: I265(14) >= 0
 c273: I266(8) >= 0
 c274: I267(16) >= 0
 c275: I268(16) >= 0
 c276: I269(18) >= 0
 c277: - 480 B6(16) + I270(16) >= 0
 c278: I270(16) >= 0
 c279: - 480 B7(16) + I271(16) >= 0
 c280: I271(16) >= 0
 c281: - 480 B8(16) + I272(16) >= 0
 c282: I272(16) >= 0
 c283: I273(14) >= 0
 c284: I274(10) >= 0
 c285: I275(8) >= 0
 c286: I276(14) >= 0
 c287: I277(18) >= 0
 c288: I278(16) >= 0
 c289: - 480 B15(14) + I279(14) >= 0
 c290: I279(14) >= 0
 c291: - 480 B16(18) + I280(18) >= 0
 c292: I280(18) >= 0
 c293: I281(18) >= 0
 c294: I282(14) >= 0
 c295: I283(10) >= 0
 c296: I284(16) >= 0
 c297: I285(18) >= 0
 c298: I286(8) >= 0
 c299: - 480 B23(14) + I287(14) >= 0
 c300: I287(14) >= 0
 c301: - 480 B24(14) + I288(14) >= 0
 c302: I288(14) >= 0
 c303: I289(16) >= 0
 c304: I290(10) >= 0
 c305: I291(16) >= 0
 c306: I292(14) >= 0
 c307: - 480 B29(14) + I293(14) >= 0
 c308: I293(14) >= 0
 c309: - 480 B30(14) + I294(14) >= 0
 c310: I294(14) >= 0
 c311: I295(16) >= 0
 c312: I296(10) >= 0
 c313: I297(18) >= 0
 c314: I298(16) >= 0
 c315: I299(16) >= 0
 c316: - 480 B36(14) + I300(14) >= 0
 c317: I300(14) >= 0
 c318: - 480 B37(14) + I301(14) >= 0
 c319: I301(14) >= 0
 c320: - 480 B38(18) + I302(18) >= 0
 c321: I302(18) >= 0
Bounds
Binaries
 B0(17) B1(13) B2(7) B3(15) B4(15) B5(17) B6(16) B7(16) B8(16) B9(13)
 B10(9) B11(7) B12(13) B13(17) B14(15) B15(14) B16(18) B17(17) B18(13)
 B19(9) B20(15) B21(17) B22(7) B23(14) B24(14) B25(15) B26(9) B27(15)
 B28(13) B29(14) B30(14) B31(15) B32(9) B33(17) B34(15) B35(15) B36(14)
 B37(14) B38(18) B39(0) B40(2) B41(0) B42(4) B43(2) B44(0) B45(4) B46(4)
 B47(0) B48(2) B49(2) B50(0) B51(2) B52(4) B53(0) B54(2) B55(0) B56(4)
 B57(0) B58(4) B59(2) B60(2) B61(2) B62(4) B63(2) B64(0) B65(4) B66(0)
 B67(2) B68(4) B69(0) B70(4) B71(0) B72(0) B73(4) B74(4) B75(0) B76(2)
 B77(4) B78(0) B79(2) B80(4) B81(0) B82(2) B83(6) B84(0) B85(0) B86(0)
 B87(0) B88(0) B89(0) B90(4) B91(2) B92(0) B93(2) B94(2) B95(0) B96(4)
 B97(2) B98(0) B99(0) B100(0) B101(0) B102(0) B103(0) B104(2) B105(2)
 B106(4) B107(2) B108(2) B109(2) B110(2) B111(0) B112(4) B113(4) B114(0)
 B115(0) B116(0) B117(0) B118(2) B119(0) B120(0) B121(2) B122(2) B123(0)
 B124(2) B125(2) B126(0) B127(2) B128(4) B129(0) B130(0) B131(0) B132(0)
 B133(0) B134(0) B135(0) B136(2) B137(0) B138(4) B139(2) B140(0) B141(4)
 B142(4) B143(0) B144(0) B145(0) B146(0) B147(0) B148(0) B149(0) B150(2)
 B151(0) B152(0) B153(2) B154(2) B155(0) B156(0) B157(4) B158(2) B159(0)
 B160(0) B161(0) B162(0) B163(0) B164(0) B165(0) B166(0) B167(0) B168(0)
 B169(0) B170(4) B171(0) B172(0) B173(4) B174(0) B175(0) B176(0) B177(0)
 B178(0) B179(0) B180(0) B181(0) B182(0) B183(0) B184(0) B185(0) B186(2)
 B187(2) B188(0) B189(0) B190(0) B191(0) B192(0) B193(0) B194(0) B195(0)
 B196(0) B197(0) B198(0) B199(0) B200(0) B201(2) B202(4) B203(2) B204(0)
 B205(0) B206(0) B207(0) B208(0) B209(0) B210(0) B211(0) B212(0) B213(0)
 B214(0) B215(0) B216(0) B217(0) B218(4) B219(0) B220(0) B221(0) B222(0)
 B223(0) B224(0) B225(0) B226(0) B227(0) B228(0) B229(0) B230(0) B231(0)
 B232(2) B233(0) B234(0) B235(0) B236(0) B237(0) B238(0) B239(0) B240(0)
 B241(0) B242(0) B243(0) B244(0) B245(0) B246(2) B247(0) B248(2) B249(0)
 B250(0) B251(0) B252(0) B253(0) B254(0) B255(0) B256(0) B257(0) B258(0)
 B259(0) B260(0) B261(0) B262(2) B263(0)
Generals
 I264(18) I265(14) I266(8) I267(16) I268(16) I269(18) I270(16) I271(16)
 I272(16) I273(14) I274(10) I275(8) I276(14) I277(18) I278(16) I279(14)
 I280(18) I281(18) I282(14) I283(10) I284(16) I285(18) I286(8) I287(14)
 I288(14) I289(16) I290(10) I291(16) I292(14) I293(14) I294(14) I295(16)
 I296(10) I297(18) I298(16) I299(16) I300(14) I301(14) I302(18) I303(1)
End
